Al  O 
 1.0000000000000000
    96.1005592339999879    0.0000000000000000    0.0000000000000000
     0.0000000000000000   96.1005592339999879    0.0000000000000000
     0.0000000000000000    0.0000000000000000   26.2325077055999998
 Al  O  
 19200 28800
Cartesian
  0.0000000000000000  0.0000000000000000  1.9399463311470082
  0.0000000000000000  0.0000000000000000 11.1763077183967994
  1.6016758895310981  3.2033520721689017  0.2460959426763150
  3.2033520721689017  1.6016758895310981 12.8701581986812688
  1.6016758895310981  3.2033520721689017  4.1259883164127462
  3.2033520721689017  1.6016758895310981  8.9902651560158926
  3.2033520721689017  1.6016760336819369  2.4321382296158918
  1.6016758895310981  3.2033517838672241 10.6841156231841072
  3.2033520721689017  1.6016760336819369  6.3120308787936548
  1.6016758895310981  3.2033517838672241  6.8042233674939618
  0.0000000000000000  0.0000000000000000  4.6181803985091836
  0.0000000000000000  0.0000000000000000  8.4980738346621774
  0.0000000000000000  0.0000000000000000  8.4980722738279688
  0.0000000000000000  0.0000000000000000  4.6181815789720311
  1.6016758895310981  3.2033520721689017  6.8042225805187311
  3.2033520721689017  1.6016758895310981  6.3120312722812697
  1.6016758895310981  3.2033520721689017 10.6841156231841072
  3.2033520721689017  1.6016758895310981  2.4321382296158918
  3.2033520721689017  1.6016760336819369  8.9902651560158926
  1.6016758895310981  3.2033517838672241  4.1259886967841082
  3.2033520721689017  1.6016760336819369 12.8701581986812688
  1.6016758895310981  3.2033517838672241  0.2460956541187302
  0.0000000000000000  0.0000000000000000 11.1763077183967994
  0.0000000000000000  0.0000000000000000  1.9399461344032001
  0.0000000000000000  0.0000000000000000 15.0562001839470074
  0.0000000000000000  0.0000000000000000 24.2925615711967993
  1.6016758895310981  3.2033520721689017 13.3623497954763124
  3.2033520721689017  1.6016758895310981 25.9864120514812669
  1.6016758895310981  3.2033520721689017 17.2422421692127443
  3.2033520721689017  1.6016758895310981 22.1065190088158943
  3.2033520721689017  1.6016760336819369 15.5483920824158925
  1.6016758895310981  3.2033517838672241 23.8003694759841053
  3.2033520721689017  1.6016760336819369 19.4282847315936564
  1.6016758895310981  3.2033517838672241 19.9204772202939608
  0.0000000000000000  0.0000000000000000 17.7344342513091817
  0.0000000000000000  0.0000000000000000 21.6143276874621790
  0.0000000000000000  0.0000000000000000 21.6143261266279687
  0.0000000000000000  0.0000000000000000 17.7344354317720310
  1.6016758895310981  3.2033520721689017 19.9204764333187327
  3.2033520721689017  1.6016758895310981 19.4282851250812705
  1.6016758895310981  3.2033520721689017 23.8003694759841053
  3.2033520721689017  1.6016758895310981 15.5483920824158925
  3.2033520721689017  1.6016760336819369 22.1065190088158943
  1.6016758895310981  3.2033517838672241 17.2422425495841090
  3.2033520721689017  1.6016760336819369 25.9864120514812669
  1.6016758895310981  3.2033517838672241 13.3623495069187310
  0.0000000000000000  0.0000000000000000 24.2925615711967993
  0.0000000000000000  0.0000000000000000 15.0561999872032004
  0.0000000000000000  4.8050279616999996  1.9399463311470082
  0.0000000000000000  4.8050279616999996 11.1763077183967994
  1.6016758895310981  8.0083800338689013  0.2460959426763150
  3.2033520721689017  6.4067038512310974 12.8701581986812688
  1.6016758895310981  8.0083800338689013  4.1259883164127462
  3.2033520721689017  6.4067038512310974  8.9902651560158926
  3.2033520721689017  6.4067039953819362  2.4321382296158918
  1.6016758895310981  8.0083797455672237 10.6841156231841072
  3.2033520721689017  6.4067039953819362  6.3120308787936548
  1.6016758895310981  8.0083797455672237  6.8042233674939618
  0.0000000000000000  4.8050279616999996  4.6181803985091836
  0.0000000000000000  4.8050279616999996  8.4980738346621774
  0.0000000000000000  4.8050279616999996  8.4980722738279688
  0.0000000000000000  4.8050279616999996  4.6181815789720311
  1.6016758895310981  8.0083800338689013  6.8042225805187311
  3.2033520721689017  6.4067038512310974  6.3120312722812697
  1.6016758895310981  8.0083800338689013 10.6841156231841072
  3.2033520721689017  6.4067038512310974  2.4321382296158918
  3.2033520721689017  6.4067039953819362  8.9902651560158926
  1.6016758895310981  8.0083797455672237  4.1259886967841082
  3.2033520721689017  6.4067039953819362 12.8701581986812688
  1.6016758895310981  8.0083797455672237  0.2460956541187302
  0.0000000000000000  4.8050279616999996 11.1763077183967994
  0.0000000000000000  4.8050279616999996  1.9399461344032001
  0.0000000000000000  4.8050279616999996 15.0562001839470074
  0.0000000000000000  4.8050279616999996 24.2925615711967993
  1.6016758895310981  8.0083800338689013 13.3623497954763124
  3.2033520721689017  6.4067038512310974 25.9864120514812669
  1.6016758895310981  8.0083800338689013 17.2422421692127443
  3.2033520721689017  6.4067038512310974 22.1065190088158943
  3.2033520721689017  6.4067039953819362 15.5483920824158925
  1.6016758895310981  8.0083797455672237 23.8003694759841053
  3.2033520721689017  6.4067039953819362 19.4282847315936564
  1.6016758895310981  8.0083797455672237 19.9204772202939608
  0.0000000000000000  4.8050279616999996 17.7344342513091817
  0.0000000000000000  4.8050279616999996 21.6143276874621790
  0.0000000000000000  4.8050279616999996 21.6143261266279687
  0.0000000000000000  4.8050279616999996 17.7344354317720310
  1.6016758895310981  8.0083800338689013 19.9204764333187327
  3.2033520721689017  6.4067038512310974 19.4282851250812705
  1.6016758895310981  8.0083800338689013 23.8003694759841053
  3.2033520721689017  6.4067038512310974 15.5483920824158925
  3.2033520721689017  6.4067039953819362 22.1065190088158943
  1.6016758895310981  8.0083797455672237 17.2422425495841090
  3.2033520721689017  6.4067039953819362 25.9864120514812669
  1.6016758895310981  8.0083797455672237 13.3623495069187310
  0.0000000000000000  4.8050279616999996 24.2925615711967993
  0.0000000000000000  4.8050279616999996 15.0561999872032004
  0.0000000000000000  9.6100559233999991  1.9399463311470082
  0.0000000000000000  9.6100559233999991 11.1763077183967994
  1.6016758895310981 12.8134079955689035  0.2460959426763150
  3.2033520721689017 11.2117318129310970 12.8701581986812688
  1.6016758895310981 12.8134079955689035  4.1259883164127462
  3.2033520721689017 11.2117318129310970  8.9902651560158926
  3.2033520721689017 11.2117319570819376  2.4321382296158918
  1.6016758895310981 12.8134077072672259 10.6841156231841072
  3.2033520721689017 11.2117319570819376  6.3120308787936548
  1.6016758895310981 12.8134077072672259  6.8042233674939618
  0.0000000000000000  9.6100559233999991  4.6181803985091836
  0.0000000000000000  9.6100559233999991  8.4980738346621774
  0.0000000000000000  9.6100559233999991  8.4980722738279688
  0.0000000000000000  9.6100559233999991  4.6181815789720311
  1.6016758895310981 12.8134079955689035  6.8042225805187311
  3.2033520721689017 11.2117318129310970  6.3120312722812697
  1.6016758895310981 12.8134079955689035 10.6841156231841072
  3.2033520721689017 11.2117318129310970  2.4321382296158918
  3.2033520721689017 11.2117319570819376  8.9902651560158926
  1.6016758895310981 12.8134077072672259  4.1259886967841082
  3.2033520721689017 11.2117319570819376 12.8701581986812688
  1.6016758895310981 12.8134077072672259  0.2460956541187302
  0.0000000000000000  9.6100559233999991 11.1763077183967994
  0.0000000000000000  9.6100559233999991  1.9399461344032001
  0.0000000000000000  9.6100559233999991 15.0562001839470074
  0.0000000000000000  9.6100559233999991 24.2925615711967993
  1.6016758895310981 12.8134079955689035 13.3623497954763124
  3.2033520721689017 11.2117318129310970 25.9864120514812669
  1.6016758895310981 12.8134079955689035 17.2422421692127443
  3.2033520721689017 11.2117318129310970 22.1065190088158943
  3.2033520721689017 11.2117319570819376 15.5483920824158925
  1.6016758895310981 12.8134077072672259 23.8003694759841053
  3.2033520721689017 11.2117319570819376 19.4282847315936564
  1.6016758895310981 12.8134077072672259 19.9204772202939608
  0.0000000000000000  9.6100559233999991 17.7344342513091817
  0.0000000000000000  9.6100559233999991 21.6143276874621790
  0.0000000000000000  9.6100559233999991 21.6143261266279687
  0.0000000000000000  9.6100559233999991 17.7344354317720310
  1.6016758895310981 12.8134079955689035 19.9204764333187327
  3.2033520721689017 11.2117318129310970 19.4282851250812705
  1.6016758895310981 12.8134079955689035 23.8003694759841053
  3.2033520721689017 11.2117318129310970 15.5483920824158925
  3.2033520721689017 11.2117319570819376 22.1065190088158943
  1.6016758895310981 12.8134077072672259 17.2422425495841090
  3.2033520721689017 11.2117319570819376 25.9864120514812669
  1.6016758895310981 12.8134077072672259 13.3623495069187310
  0.0000000000000000  9.6100559233999991 24.2925615711967993
  0.0000000000000000  9.6100559233999991 15.0561999872032004
  0.0000000000000000 14.4150838850999996  1.9399463311470082
  0.0000000000000000 14.4150838850999996 11.1763077183967994
  1.6016758895310981 17.6184359572689004  0.2460959426763150
  3.2033520721689017 16.0167597746310975 12.8701581986812688
  1.6016758895310981 17.6184359572689004  4.1259883164127462
  3.2033520721689017 16.0167597746310975  8.9902651560158926
  3.2033520721689017 16.0167599187819363  2.4321382296158918
  1.6016758895310981 17.6184356689672228 10.6841156231841072
  3.2033520721689017 16.0167599187819363  6.3120308787936548
  1.6016758895310981 17.6184356689672228  6.8042233674939618
  0.0000000000000000 14.4150838850999996  4.6181803985091836
  0.0000000000000000 14.4150838850999996  8.4980738346621774
  0.0000000000000000 14.4150838850999996  8.4980722738279688
  0.0000000000000000 14.4150838850999996  4.6181815789720311
  1.6016758895310981 17.6184359572689004  6.8042225805187311
  3.2033520721689017 16.0167597746310975  6.3120312722812697
  1.6016758895310981 17.6184359572689004 10.6841156231841072
  3.2033520721689017 16.0167597746310975  2.4321382296158918
  3.2033520721689017 16.0167599187819363  8.9902651560158926
  1.6016758895310981 17.6184356689672228  4.1259886967841082
  3.2033520721689017 16.0167599187819363 12.8701581986812688
  1.6016758895310981 17.6184356689672228  0.2460956541187302
  0.0000000000000000 14.4150838850999996 11.1763077183967994
  0.0000000000000000 14.4150838850999996  1.9399461344032001
  0.0000000000000000 14.4150838850999996 15.0562001839470074
  0.0000000000000000 14.4150838850999996 24.2925615711967993
  1.6016758895310981 17.6184359572689004 13.3623497954763124
  3.2033520721689017 16.0167597746310975 25.9864120514812669
  1.6016758895310981 17.6184359572689004 17.2422421692127443
  3.2033520721689017 16.0167597746310975 22.1065190088158943
  3.2033520721689017 16.0167599187819363 15.5483920824158925
  1.6016758895310981 17.6184356689672228 23.8003694759841053
  3.2033520721689017 16.0167599187819363 19.4282847315936564
  1.6016758895310981 17.6184356689672228 19.9204772202939608
  0.0000000000000000 14.4150838850999996 17.7344342513091817
  0.0000000000000000 14.4150838850999996 21.6143276874621790
  0.0000000000000000 14.4150838850999996 21.6143261266279687
  0.0000000000000000 14.4150838850999996 17.7344354317720310
  1.6016758895310981 17.6184359572689004 19.9204764333187327
  3.2033520721689017 16.0167597746310975 19.4282851250812705
  1.6016758895310981 17.6184359572689004 23.8003694759841053
  3.2033520721689017 16.0167597746310975 15.5483920824158925
  3.2033520721689017 16.0167599187819363 22.1065190088158943
  1.6016758895310981 17.6184356689672228 17.2422425495841090
  3.2033520721689017 16.0167599187819363 25.9864120514812669
  1.6016758895310981 17.6184356689672228 13.3623495069187310
  0.0000000000000000 14.4150838850999996 24.2925615711967993
  0.0000000000000000 14.4150838850999996 15.0561999872032004
  0.0000000000000000 19.2201118467999983  1.9399463311470082
  0.0000000000000000 19.2201118467999983 11.1763077183967994
  1.6016758895310981 22.4234639189688991  0.2460959426763150
  3.2033520721689017 20.8217877363310961 12.8701581986812688
  1.6016758895310981 22.4234639189688991  4.1259883164127462
  3.2033520721689017 20.8217877363310961  8.9902651560158926
  3.2033520721689017 20.8217878804819350  2.4321382296158918
  1.6016758895310981 22.4234636306672215 10.6841156231841072
  3.2033520721689017 20.8217878804819350  6.3120308787936548
  1.6016758895310981 22.4234636306672215  6.8042233674939618
  0.0000000000000000 19.2201118467999983  4.6181803985091836
  0.0000000000000000 19.2201118467999983  8.4980738346621774
  0.0000000000000000 19.2201118467999983  8.4980722738279688
  0.0000000000000000 19.2201118467999983  4.6181815789720311
  1.6016758895310981 22.4234639189688991  6.8042225805187311
  3.2033520721689017 20.8217877363310961  6.3120312722812697
  1.6016758895310981 22.4234639189688991 10.6841156231841072
  3.2033520721689017 20.8217877363310961  2.4321382296158918
  3.2033520721689017 20.8217878804819350  8.9902651560158926
  1.6016758895310981 22.4234636306672215  4.1259886967841082
  3.2033520721689017 20.8217878804819350 12.8701581986812688
  1.6016758895310981 22.4234636306672215  0.2460956541187302
  0.0000000000000000 19.2201118467999983 11.1763077183967994
  0.0000000000000000 19.2201118467999983  1.9399461344032001
  0.0000000000000000 19.2201118467999983 15.0562001839470074
  0.0000000000000000 19.2201118467999983 24.2925615711967993
  1.6016758895310981 22.4234639189688991 13.3623497954763124
  3.2033520721689017 20.8217877363310961 25.9864120514812669
  1.6016758895310981 22.4234639189688991 17.2422421692127443
  3.2033520721689017 20.8217877363310961 22.1065190088158943
  3.2033520721689017 20.8217878804819350 15.5483920824158925
  1.6016758895310981 22.4234636306672215 23.8003694759841053
  3.2033520721689017 20.8217878804819350 19.4282847315936564
  1.6016758895310981 22.4234636306672215 19.9204772202939608
  0.0000000000000000 19.2201118467999983 17.7344342513091817
  0.0000000000000000 19.2201118467999983 21.6143276874621790
  0.0000000000000000 19.2201118467999983 21.6143261266279687
  0.0000000000000000 19.2201118467999983 17.7344354317720310
  1.6016758895310981 22.4234639189688991 19.9204764333187327
  3.2033520721689017 20.8217877363310961 19.4282851250812705
  1.6016758895310981 22.4234639189688991 23.8003694759841053
  3.2033520721689017 20.8217877363310961 15.5483920824158925
  3.2033520721689017 20.8217878804819350 22.1065190088158943
  1.6016758895310981 22.4234636306672215 17.2422425495841090
  3.2033520721689017 20.8217878804819350 25.9864120514812669
  1.6016758895310981 22.4234636306672215 13.3623495069187310
  0.0000000000000000 19.2201118467999983 24.2925615711967993
  0.0000000000000000 19.2201118467999983 15.0561999872032004
  0.0000000000000000 24.0251398084999970  1.9399463311470082
  0.0000000000000000 24.0251398084999970 11.1763077183967994
  1.6016758895310981 27.2284918806689014  0.2460959426763150
  3.2033520721689017 25.6268156980310984 12.8701581986812688
  1.6016758895310981 27.2284918806689014  4.1259883164127462
  3.2033520721689017 25.6268156980310984  8.9902651560158926
  3.2033520721689017 25.6268158421819372  2.4321382296158918
  1.6016758895310981 27.2284915923672202 10.6841156231841072
  3.2033520721689017 25.6268158421819372  6.3120308787936548
  1.6016758895310981 27.2284915923672202  6.8042233674939618
  0.0000000000000000 24.0251398084999970  4.6181803985091836
  0.0000000000000000 24.0251398084999970  8.4980738346621774
  0.0000000000000000 24.0251398084999970  8.4980722738279688
  0.0000000000000000 24.0251398084999970  4.6181815789720311
  1.6016758895310981 27.2284918806689014  6.8042225805187311
  3.2033520721689017 25.6268156980310984  6.3120312722812697
  1.6016758895310981 27.2284918806689014 10.6841156231841072
  3.2033520721689017 25.6268156980310984  2.4321382296158918
  3.2033520721689017 25.6268158421819372  8.9902651560158926
  1.6016758895310981 27.2284915923672202  4.1259886967841082
  3.2033520721689017 25.6268158421819372 12.8701581986812688
  1.6016758895310981 27.2284915923672202  0.2460956541187302
  0.0000000000000000 24.0251398084999970 11.1763077183967994
  0.0000000000000000 24.0251398084999970  1.9399461344032001
  0.0000000000000000 24.0251398084999970 15.0562001839470074
  0.0000000000000000 24.0251398084999970 24.2925615711967993
  1.6016758895310981 27.2284918806689014 13.3623497954763124
  3.2033520721689017 25.6268156980310984 25.9864120514812669
  1.6016758895310981 27.2284918806689014 17.2422421692127443
  3.2033520721689017 25.6268156980310984 22.1065190088158943
  3.2033520721689017 25.6268158421819372 15.5483920824158925
  1.6016758895310981 27.2284915923672202 23.8003694759841053
  3.2033520721689017 25.6268158421819372 19.4282847315936564
  1.6016758895310981 27.2284915923672202 19.9204772202939608
  0.0000000000000000 24.0251398084999970 17.7344342513091817
  0.0000000000000000 24.0251398084999970 21.6143276874621790
  0.0000000000000000 24.0251398084999970 21.6143261266279687
  0.0000000000000000 24.0251398084999970 17.7344354317720310
  1.6016758895310981 27.2284918806689014 19.9204764333187327
  3.2033520721689017 25.6268156980310984 19.4282851250812705
  1.6016758895310981 27.2284918806689014 23.8003694759841053
  3.2033520721689017 25.6268156980310984 15.5483920824158925
  3.2033520721689017 25.6268158421819372 22.1065190088158943
  1.6016758895310981 27.2284915923672202 17.2422425495841090
  3.2033520721689017 25.6268158421819372 25.9864120514812669
  1.6016758895310981 27.2284915923672202 13.3623495069187310
  0.0000000000000000 24.0251398084999970 24.2925615711967993
  0.0000000000000000 24.0251398084999970 15.0561999872032004
  0.0000000000000000 28.8301677701999992  1.9399463311470082
  0.0000000000000000 28.8301677701999992 11.1763077183967994
  1.6016758895310981 32.0335198423689036  0.2460959426763150
  3.2033520721689017 30.4318436597311006 12.8701581986812688
  1.6016758895310981 32.0335198423689036  4.1259883164127462
  3.2033520721689017 30.4318436597311006  8.9902651560158926
  3.2033520721689017 30.4318438038819359  2.4321382296158918
  1.6016758895310981 32.0335195540672260 10.6841156231841072
  3.2033520721689017 30.4318438038819359  6.3120308787936548
  1.6016758895310981 32.0335195540672260  6.8042233674939618
  0.0000000000000000 28.8301677701999992  4.6181803985091836
  0.0000000000000000 28.8301677701999992  8.4980738346621774
  0.0000000000000000 28.8301677701999992  8.4980722738279688
  0.0000000000000000 28.8301677701999992  4.6181815789720311
  1.6016758895310981 32.0335198423689036  6.8042225805187311
  3.2033520721689017 30.4318436597311006  6.3120312722812697
  1.6016758895310981 32.0335198423689036 10.6841156231841072
  3.2033520721689017 30.4318436597311006  2.4321382296158918
  3.2033520721689017 30.4318438038819359  8.9902651560158926
  1.6016758895310981 32.0335195540672260  4.1259886967841082
  3.2033520721689017 30.4318438038819359 12.8701581986812688
  1.6016758895310981 32.0335195540672260  0.2460956541187302
  0.0000000000000000 28.8301677701999992 11.1763077183967994
  0.0000000000000000 28.8301677701999992  1.9399461344032001
  0.0000000000000000 28.8301677701999992 15.0562001839470074
  0.0000000000000000 28.8301677701999992 24.2925615711967993
  1.6016758895310981 32.0335198423689036 13.3623497954763124
  3.2033520721689017 30.4318436597311006 25.9864120514812669
  1.6016758895310981 32.0335198423689036 17.2422421692127443
  3.2033520721689017 30.4318436597311006 22.1065190088158943
  3.2033520721689017 30.4318438038819359 15.5483920824158925
  1.6016758895310981 32.0335195540672260 23.8003694759841053
  3.2033520721689017 30.4318438038819359 19.4282847315936564
  1.6016758895310981 32.0335195540672260 19.9204772202939608
  0.0000000000000000 28.8301677701999992 17.7344342513091817
  0.0000000000000000 28.8301677701999992 21.6143276874621790
  0.0000000000000000 28.8301677701999992 21.6143261266279687
  0.0000000000000000 28.8301677701999992 17.7344354317720310
  1.6016758895310981 32.0335198423689036 19.9204764333187327
  3.2033520721689017 30.4318436597311006 19.4282851250812705
  1.6016758895310981 32.0335198423689036 23.8003694759841053
  3.2033520721689017 30.4318436597311006 15.5483920824158925
  3.2033520721689017 30.4318438038819359 22.1065190088158943
  1.6016758895310981 32.0335195540672260 17.2422425495841090
  3.2033520721689017 30.4318438038819359 25.9864120514812669
  1.6016758895310981 32.0335195540672260 13.3623495069187310
  0.0000000000000000 28.8301677701999992 24.2925615711967993
  0.0000000000000000 28.8301677701999992 15.0561999872032004
  0.0000000000000000 33.6351957318999979  1.9399463311470082
  0.0000000000000000 33.6351957318999979 11.1763077183967994
  1.6016758895310981 36.8385478040689023  0.2460959426763150
  3.2033520721689017 35.2368716214310993 12.8701581986812688
  1.6016758895310981 36.8385478040689023  4.1259883164127462
  3.2033520721689017 35.2368716214310993  8.9902651560158926
  3.2033520721689017 35.2368717655819381  2.4321382296158918
  1.6016758895310981 36.8385475157672246 10.6841156231841072
  3.2033520721689017 35.2368717655819381  6.3120308787936548
  1.6016758895310981 36.8385475157672246  6.8042233674939618
  0.0000000000000000 33.6351957318999979  4.6181803985091836
  0.0000000000000000 33.6351957318999979  8.4980738346621774
  0.0000000000000000 33.6351957318999979  8.4980722738279688
  0.0000000000000000 33.6351957318999979  4.6181815789720311
  1.6016758895310981 36.8385478040689023  6.8042225805187311
  3.2033520721689017 35.2368716214310993  6.3120312722812697
  1.6016758895310981 36.8385478040689023 10.6841156231841072
  3.2033520721689017 35.2368716214310993  2.4321382296158918
  3.2033520721689017 35.2368717655819381  8.9902651560158926
  1.6016758895310981 36.8385475157672246  4.1259886967841082
  3.2033520721689017 35.2368717655819381 12.8701581986812688
  1.6016758895310981 36.8385475157672246  0.2460956541187302
  0.0000000000000000 33.6351957318999979 11.1763077183967994
  0.0000000000000000 33.6351957318999979  1.9399461344032001
  0.0000000000000000 33.6351957318999979 15.0562001839470074
  0.0000000000000000 33.6351957318999979 24.2925615711967993
  1.6016758895310981 36.8385478040689023 13.3623497954763124
  3.2033520721689017 35.2368716214310993 25.9864120514812669
  1.6016758895310981 36.8385478040689023 17.2422421692127443
  3.2033520721689017 35.2368716214310993 22.1065190088158943
  3.2033520721689017 35.2368717655819381 15.5483920824158925
  1.6016758895310981 36.8385475157672246 23.8003694759841053
  3.2033520721689017 35.2368717655819381 19.4282847315936564
  1.6016758895310981 36.8385475157672246 19.9204772202939608
  0.0000000000000000 33.6351957318999979 17.7344342513091817
  0.0000000000000000 33.6351957318999979 21.6143276874621790
  0.0000000000000000 33.6351957318999979 21.6143261266279687
  0.0000000000000000 33.6351957318999979 17.7344354317720310
  1.6016758895310981 36.8385478040689023 19.9204764333187327
  3.2033520721689017 35.2368716214310993 19.4282851250812705
  1.6016758895310981 36.8385478040689023 23.8003694759841053
  3.2033520721689017 35.2368716214310993 15.5483920824158925
  3.2033520721689017 35.2368717655819381 22.1065190088158943
  1.6016758895310981 36.8385475157672246 17.2422425495841090
  3.2033520721689017 35.2368717655819381 25.9864120514812669
  1.6016758895310981 36.8385475157672246 13.3623495069187310
  0.0000000000000000 33.6351957318999979 24.2925615711967993
  0.0000000000000000 33.6351957318999979 15.0561999872032004
  0.0000000000000000 38.4402236935999966  1.9399463311470082
  0.0000000000000000 38.4402236935999966 11.1763077183967994
  1.6016758895310981 41.6435757657689010  0.2460959426763150
  3.2033520721689017 40.0418995831310980 12.8701581986812688
  1.6016758895310981 41.6435757657689010  4.1259883164127462
  3.2033520721689017 40.0418995831310980  8.9902651560158926
  3.2033520721689017 40.0418997272819368  2.4321382296158918
  1.6016758895310981 41.6435754774672233 10.6841156231841072
  3.2033520721689017 40.0418997272819368  6.3120308787936548
  1.6016758895310981 41.6435754774672233  6.8042233674939618
  0.0000000000000000 38.4402236935999966  4.6181803985091836
  0.0000000000000000 38.4402236935999966  8.4980738346621774
  0.0000000000000000 38.4402236935999966  8.4980722738279688
  0.0000000000000000 38.4402236935999966  4.6181815789720311
  1.6016758895310981 41.6435757657689010  6.8042225805187311
  3.2033520721689017 40.0418995831310980  6.3120312722812697
  1.6016758895310981 41.6435757657689010 10.6841156231841072
  3.2033520721689017 40.0418995831310980  2.4321382296158918
  3.2033520721689017 40.0418997272819368  8.9902651560158926
  1.6016758895310981 41.6435754774672233  4.1259886967841082
  3.2033520721689017 40.0418997272819368 12.8701581986812688
  1.6016758895310981 41.6435754774672233  0.2460956541187302
  0.0000000000000000 38.4402236935999966 11.1763077183967994
  0.0000000000000000 38.4402236935999966  1.9399461344032001
  0.0000000000000000 38.4402236935999966 15.0562001839470074
  0.0000000000000000 38.4402236935999966 24.2925615711967993
  1.6016758895310981 41.6435757657689010 13.3623497954763124
  3.2033520721689017 40.0418995831310980 25.9864120514812669
  1.6016758895310981 41.6435757657689010 17.2422421692127443
  3.2033520721689017 40.0418995831310980 22.1065190088158943
  3.2033520721689017 40.0418997272819368 15.5483920824158925
  1.6016758895310981 41.6435754774672233 23.8003694759841053
  3.2033520721689017 40.0418997272819368 19.4282847315936564
  1.6016758895310981 41.6435754774672233 19.9204772202939608
  0.0000000000000000 38.4402236935999966 17.7344342513091817
  0.0000000000000000 38.4402236935999966 21.6143276874621790
  0.0000000000000000 38.4402236935999966 21.6143261266279687
  0.0000000000000000 38.4402236935999966 17.7344354317720310
  1.6016758895310981 41.6435757657689010 19.9204764333187327
  3.2033520721689017 40.0418995831310980 19.4282851250812705
  1.6016758895310981 41.6435757657689010 23.8003694759841053
  3.2033520721689017 40.0418995831310980 15.5483920824158925
  3.2033520721689017 40.0418997272819368 22.1065190088158943
  1.6016758895310981 41.6435754774672233 17.2422425495841090
  3.2033520721689017 40.0418997272819368 25.9864120514812669
  1.6016758895310981 41.6435754774672233 13.3623495069187310
  0.0000000000000000 38.4402236935999966 24.2925615711967993
  0.0000000000000000 38.4402236935999966 15.0561999872032004
  0.0000000000000000 43.2452516552999953  1.9399463311470082
  0.0000000000000000 43.2452516552999953 11.1763077183967994
  1.6016758895310981 46.4486037274688996  0.2460959426763150
  3.2033520721689017 44.8469275448310967 12.8701581986812688
  1.6016758895310981 46.4486037274688996  4.1259883164127462
  3.2033520721689017 44.8469275448310967  8.9902651560158926
  3.2033520721689017 44.8469276889819355  2.4321382296158918
  1.6016758895310981 46.4486034391672220 10.6841156231841072
  3.2033520721689017 44.8469276889819355  6.3120308787936548
  1.6016758895310981 46.4486034391672220  6.8042233674939618
  0.0000000000000000 43.2452516552999953  4.6181803985091836
  0.0000000000000000 43.2452516552999953  8.4980738346621774
  0.0000000000000000 43.2452516552999953  8.4980722738279688
  0.0000000000000000 43.2452516552999953  4.6181815789720311
  1.6016758895310981 46.4486037274688996  6.8042225805187311
  3.2033520721689017 44.8469275448310967  6.3120312722812697
  1.6016758895310981 46.4486037274688996 10.6841156231841072
  3.2033520721689017 44.8469275448310967  2.4321382296158918
  3.2033520721689017 44.8469276889819355  8.9902651560158926
  1.6016758895310981 46.4486034391672220  4.1259886967841082
  3.2033520721689017 44.8469276889819355 12.8701581986812688
  1.6016758895310981 46.4486034391672220  0.2460956541187302
  0.0000000000000000 43.2452516552999953 11.1763077183967994
  0.0000000000000000 43.2452516552999953  1.9399461344032001
  0.0000000000000000 43.2452516552999953 15.0562001839470074
  0.0000000000000000 43.2452516552999953 24.2925615711967993
  1.6016758895310981 46.4486037274688996 13.3623497954763124
  3.2033520721689017 44.8469275448310967 25.9864120514812669
  1.6016758895310981 46.4486037274688996 17.2422421692127443
  3.2033520721689017 44.8469275448310967 22.1065190088158943
  3.2033520721689017 44.8469276889819355 15.5483920824158925
  1.6016758895310981 46.4486034391672220 23.8003694759841053
  3.2033520721689017 44.8469276889819355 19.4282847315936564
  1.6016758895310981 46.4486034391672220 19.9204772202939608
  0.0000000000000000 43.2452516552999953 17.7344342513091817
  0.0000000000000000 43.2452516552999953 21.6143276874621790
  0.0000000000000000 43.2452516552999953 21.6143261266279687
  0.0000000000000000 43.2452516552999953 17.7344354317720310
  1.6016758895310981 46.4486037274688996 19.9204764333187327
  3.2033520721689017 44.8469275448310967 19.4282851250812705
  1.6016758895310981 46.4486037274688996 23.8003694759841053
  3.2033520721689017 44.8469275448310967 15.5483920824158925
  3.2033520721689017 44.8469276889819355 22.1065190088158943
  1.6016758895310981 46.4486034391672220 17.2422425495841090
  3.2033520721689017 44.8469276889819355 25.9864120514812669
  1.6016758895310981 46.4486034391672220 13.3623495069187310
  0.0000000000000000 43.2452516552999953 24.2925615711967993
  0.0000000000000000 43.2452516552999953 15.0561999872032004
  0.0000000000000000 48.0502796169999868  1.9399463311470082
  0.0000000000000000 48.0502796169999868 11.1763077183967994
  1.6016758895310981 51.2536316891689054  0.2460959426763150
  3.2033520721689017 49.6519555065311025 12.8701581986812688
  1.6016758895310981 51.2536316891689054  4.1259883164127462
  3.2033520721689017 49.6519555065311025  8.9902651560158926
  3.2033520721689017 49.6519556506819413  2.4321382296158918